(set-info :status unsat) ; swine result
(set-logic ALL)
(declare-fun i1 () Int)
(declare-fun it579 () Int)
(declare-fun it580 () Int)
(declare-fun it15 () Int)
(declare-fun it14 () Int)
(declare-fun it581 () Int)
(declare-fun it582 () Int)
(declare-fun it13 () Int)
(declare-fun bt633 () Bool)
(declare-fun bt634 () Bool)
(declare-fun bt635 () Bool)
(declare-fun bt636 () Bool)
(declare-fun it17 () Int)
(declare-fun it16 () Int)
(declare-fun it18 () Int)
(declare-fun bt25 () Bool)
(declare-fun bt28 () Bool)
(declare-fun bt26 () Bool)
(declare-fun bt27 () Bool)
(declare-fun it588 () Int)
(declare-fun it589 () Int)
(declare-fun it590 () Int)
(declare-fun it591 () Int)
(declare-fun bt637 () Bool)
(declare-fun bt638 () Bool)
(declare-fun bt639 () Bool)
(declare-fun bt640 () Bool)
(declare-fun it356 () Int)
(declare-fun it665 () Int)
(declare-fun it666 () Int)
(declare-fun it667 () Int)
(declare-fun it668 () Int)
(declare-fun bt709 () Bool)
(declare-fun bt710 () Bool)
(declare-fun bt711 () Bool)
(declare-fun bt712 () Bool)
(declare-fun it155 () Int)
(assert (= (+ i1 (- 1)) 0))
(assert (= (+ it579 (- 2)) 0))
(assert (= (+ (* it15 (- 1)) it580) 0))
(assert (= (+ it581 (* it14 (- 1))) 0))
(assert (= (+ (* it13 (- 1)) it582) 0))
(assert (or (and false bt633) (not bt633)))
(assert (or (and false (not bt634)) bt634))
(assert (or (and false bt635) (not bt635)))
(assert (or (and false bt636) (not bt636)))
(assert (and bt27
     (not bt26)
     (not bt28)
     (not bt25)
     (= (+ it18 (- 1)) 0)
     (= (+ it579 (- 2)) 0)
     (= (+ (* it16 (- 1)) it582) 0)
     (not bt633)
     (= (+ it581 (* it17 (- 1))) 0)
     bt634
     (not bt635)
     (not bt636)))
(assert (= (+ it588 (- 2)) 0))
(assert (= (+ (* it18 (- 1)) it589) 0))
(assert (= (+ it590 (* it17 (- 1))) 0))
(assert (= (+ (* it16 (- 1)) it591) 0))
(assert (or (and bt27 bt637) (and (not bt27) (not bt637))))
(assert (or (and bt28 bt638) (and (not bt28) (not bt638))))
(assert (or (and (not bt26) (not bt639)) (and bt26 bt639)))
(assert (or (and (not bt25) (not bt640)) (and bt25 bt640)))
(assert (let ((a!1 (+ (* (+ 0 it589) (exp 3 (+ it356 (- 1))) (+ 0 (- 1)))
              (+ 0 it591))))
  (and (> a!1 (+ 0 0))
       (> (+ (* it589 (- 1)) it591) 0)
       (>= (+ (* it588 (- 1)) 2) 0)
       bt637
       (not bt638)
       (>= (* it590 (- 1)) 0)
       (>= (+ it588 (- 2)) 0)
       (not bt640)
       (not bt639)
       (>= (+ it356 (- 1)) 0))))
(assert (= (+ (* it588 (- 1)) it665) 0))
(assert (= (+ (* (+ 0 it589) (exp 3 it356) (+ 0 (- 1))) (+ 0 it666))
   (+ 0 0)))
(assert (= (+ (* it590 (- 1)) it667) 0))
(assert (= (+ it668 (* it591 (- 1))) 0))
(assert (or (and false (not bt709)) bt709))
(assert (or (and false bt710) (not bt710)))
(assert (or (and false bt711) (not bt711)))
(assert (or (and false bt712) (not bt712)))
(assert (let ((a!1 (+ (+ 0 it668)
              (* (exp 2 (+ it155 (- 1))) (+ 0 it666) (+ 0 (- 1))))))
  (and (> a!1 (+ 0 0))
       (>= (+ (* it665 (- 1)) 2) 0)
       (not bt711)
       (not bt710)
       bt709
       (not bt712)
       (>= (+ it155 (- 1)) 0)
       (> (+ it668 (* it666 (- 1))) 0)
       (> it667 0)
       (>= (+ it665 (- 2)) 0))))
(check-sat)
